\ Model master model
\ LP format - for model browsing. Use MPS format to capture full model detail.
Minimize
  0.5 L + 0.5 omega
Subject To
 epigraph[0]: 2364.163013295733 x[0,1] + 1744.493606848849 x[0,2] - L <= 0
 epigraph[1]: 2713.504236404486 x[1,0] + 1231.827487106873 x[1,2] - L <= 0
 epigraph[2]: 1997.454209811932 x[2,0] + 1228.865227566858 x[2,1] - L <= 0
 p: y[0] + y[1] + y[2] = 1
 x<y[0,0]: x[0,0] - y[0] <= 0
 x<y[0,1]: x[0,1] - y[1] <= 0
 x<y[0,2]: x[0,2] - y[2] <= 0
 x<y[1,0]: x[1,0] - y[0] <= 0
 x<y[1,1]: x[1,1] - y[1] <= 0
 x<y[1,2]: x[1,2] - y[2] <= 0
 x<y[2,0]: x[2,0] - y[0] <= 0
 x<y[2,1]: x[2,1] - y[1] <= 0
 x<y[2,2]: x[2,2] - y[2] <= 0
 sumx[0]: x[0,0] + x[0,1] + x[0,2] = 1
 sumx[1]: x[1,0] + x[1,1] + x[1,2] = 1
 sumx[2]: x[2,0] + x[2,1] + x[2,2] = 1
 R16: 126.2271251667421 y[0] - 2485.791828834007 y[1]
   - 2485.791828834007 y[2] + omega >= 0
 R17: - 3543.093466389251 y[0] + 2222.837976038461 y[1]
   - 3543.093466389251 y[2] + omega >= 0
 R18: 2548.986730219688 y[0] - 1303.905884307388 y[1]
   - 1303.905884307388 y[2] + omega >= 1245.0808459123
 R19: 2548.986730219688 y[0] - 1303.905884307388 y[1]
   - 1303.905884307388 y[2] + omega >= 1245.0808459123
 R20: 2548.986730219688 y[0] - 1303.905884307388 y[1]
   - 1303.905884307388 y[2] + omega >= 1245.0808459123
 R21: 2548.986730219688 y[0] - 1303.905884307388 y[1]
   - 1303.905884307388 y[2] + omega >= 1245.0808459123
 R22: 2548.986730219688 y[0] - 1303.905884307388 y[1]
   - 1303.905884307388 y[2] + omega >= 1245.0808459123
 R23: 2548.986730219688 y[0] - 1303.905884307388 y[1]
   - 1303.905884307388 y[2] + omega >= 1245.0808459123
 R24: 2548.986730219688 y[0] - 1303.905884307388 y[1]
   - 1303.905884307388 y[2] + omega >= 1245.0808459123
 R25: 2548.986730219688 y[0] - 1303.905884307388 y[1]
   - 1303.905884307388 y[2] + omega >= 1245.0808459123
 R26: 2548.986730219688 y[0] - 1303.905884307388 y[1]
   - 1303.905884307388 y[2] + omega >= 1245.0808459123
 R27: 2548.986730219688 y[0] - 1303.905884307388 y[1]
   - 1303.905884307388 y[2] + omega >= 1245.0808459123
 R28: 2548.986730219688 y[0] - 1303.905884307388 y[1]
   - 1303.905884307388 y[2] + omega >= 1245.0808459123
 R29: 2548.986730219688 y[0] - 1303.905884307388 y[1]
   - 1303.905884307388 y[2] + omega >= 1245.0808459123
 R30: 2548.986730219688 y[0] - 1303.905884307388 y[1]
   - 1303.905884307388 y[2] + omega >= 1245.0808459123
 R31: 2548.986730219688 y[0] - 1303.905884307388 y[1]
   - 1303.905884307388 y[2] + omega >= 1245.0808459123
 R32: 2548.986730219688 y[0] - 1303.905884307388 y[1]
   - 1303.905884307388 y[2] + omega >= 1245.0808459123
 R33: 2548.986730219688 y[0] - 1303.905884307388 y[1]
   - 1303.905884307388 y[2] + omega >= 1245.0808459123
 R34: 2548.986730219688 y[0] - 1303.905884307388 y[1]
   - 1303.905884307388 y[2] + omega >= 1245.0808459123
 R35: 2548.986730219688 y[0] - 1303.905884307388 y[1]
   - 1303.905884307388 y[2] + omega >= 1245.0808459123
 R36: 2548.986730219688 y[0] - 1303.905884307388 y[1]
   - 1303.905884307388 y[2] + omega >= 1245.0808459123
 R37: 2548.986730219688 y[0] - 1303.905884307388 y[1]
   - 1303.905884307388 y[2] + omega >= 1245.0808459123
 R38: 2548.986730219688 y[0] - 1303.905884307388 y[1]
   - 1303.905884307388 y[2] + omega >= 1245.0808459123
 R39: 2548.986730219688 y[0] - 1303.905884307388 y[1]
   - 1303.905884307388 y[2] + omega >= 1245.0808459123
 R40: 2548.986730219688 y[0] - 1303.905884307388 y[1]
   - 1303.905884307388 y[2] + omega >= 1245.0808459123
 R41: 2548.986730219688 y[0] - 1303.905884307388 y[1]
   - 1303.905884307388 y[2] + omega >= 1245.0808459123
 R42: 2548.986730219688 y[0] - 1303.905884307388 y[1]
   - 1303.905884307388 y[2] + omega >= 1245.0808459123
 R43: 2548.986730219688 y[0] - 1303.905884307388 y[1]
   - 1303.905884307388 y[2] + omega >= 1245.0808459123
 R44: 2548.986730219688 y[0] - 1303.905884307388 y[1]
   - 1303.905884307388 y[2] + omega >= 1245.0808459123
 R45: 2548.986730219688 y[0] - 1303.905884307388 y[1]
   - 1303.905884307388 y[2] + omega >= 1245.0808459123
 R46: 2548.986730219688 y[0] - 1303.905884307388 y[1]
   - 1303.905884307388 y[2] + omega >= 1245.0808459123
 R47: 2548.986730219688 y[0] - 1303.905884307388 y[1]
   - 1303.905884307388 y[2] + omega >= 1245.0808459123
 R48: 2548.986730219688 y[0] - 1303.905884307388 y[1]
   - 1303.905884307388 y[2] + omega >= 1245.0808459123
 R49: 2548.986730219688 y[0] - 1303.905884307388 y[1]
   - 1303.905884307388 y[2] + omega >= 1245.0808459123
 R50: 2548.986730219688 y[0] - 1303.905884307388 y[1]
   - 1303.905884307388 y[2] + omega >= 1245.0808459123
 R51: 2548.986730219688 y[0] - 1303.905884307388 y[1]
   - 1303.905884307388 y[2] + omega >= 1245.0808459123
 R52: 2548.986730219688 y[0] - 1303.905884307388 y[1]
   - 1303.905884307388 y[2] + omega >= 1245.0808459123
 R53: 2548.986730219688 y[0] - 1303.905884307388 y[1]
   - 1303.905884307388 y[2] + omega >= 1245.0808459123
 R54: 2548.986730219688 y[0] - 1303.905884307388 y[1]
   - 1303.905884307388 y[2] + omega >= 1245.0808459123
 R55: 2548.986730219688 y[0] - 1303.905884307388 y[1]
   - 1303.905884307388 y[2] + omega >= 1245.0808459123
 R56: 2548.986730219688 y[0] - 1303.905884307388 y[1]
   - 1303.905884307388 y[2] + omega >= 1245.0808459123
 R57: 2548.986730219688 y[0] - 1303.905884307388 y[1]
   - 1303.905884307388 y[2] + omega >= 1245.0808459123
 R58: 2548.986730219688 y[0] - 1303.905884307388 y[1]
   - 1303.905884307388 y[2] + omega >= 1245.0808459123
 R59: 2548.986730219688 y[0] - 1303.905884307388 y[1]
   - 1303.905884307388 y[2] + omega >= 1245.0808459123
 R60: 2548.986730219688 y[0] - 1303.905884307388 y[1]
   - 1303.905884307388 y[2] + omega >= 1245.0808459123
 R61: 2548.986730219688 y[0] - 1303.905884307388 y[1]
   - 1303.905884307388 y[2] + omega >= 1245.0808459123
 R62: 2548.986730219688 y[0] - 1303.905884307388 y[1]
   - 1303.905884307388 y[2] + omega >= 1245.0808459123
 R63: 2548.986730219688 y[0] - 1303.905884307388 y[1]
   - 1303.905884307388 y[2] + omega >= 1245.0808459123
 R64: 2548.986730219688 y[0] - 1303.905884307388 y[1]
   - 1303.905884307388 y[2] + omega >= 1245.0808459123
 R65: 2548.986730219688 y[0] - 1303.905884307388 y[1]
   - 1303.905884307388 y[2] + omega >= 1245.0808459123
 R66: 2548.986730219688 y[0] - 1303.905884307388 y[1]
   - 1303.905884307388 y[2] + omega >= 1245.0808459123
 R67: 2548.986730219688 y[0] - 1303.905884307388 y[1]
   - 1303.905884307388 y[2] + omega >= 1245.0808459123
 R68: 2548.986730219688 y[0] - 1303.905884307388 y[1]
   - 1303.905884307388 y[2] + omega >= 1245.0808459123
 R69: 2548.986730219688 y[0] - 1303.905884307388 y[1]
   - 1303.905884307388 y[2] + omega >= 1245.0808459123
 R70: 2548.986730219688 y[0] - 1303.905884307388 y[1]
   - 1303.905884307388 y[2] + omega >= 1245.0808459123
 R71: 2548.986730219688 y[0] - 1303.905884307388 y[1]
   - 1303.905884307388 y[2] + omega >= 1245.0808459123
 R72: 2548.986730219688 y[0] - 1303.905884307388 y[1]
   - 1303.905884307388 y[2] + omega >= 1245.0808459123
 R73: 2548.986730219688 y[0] - 1303.905884307388 y[1]
   - 1303.905884307388 y[2] + omega >= 1245.0808459123
 R74: 2548.986730219688 y[0] - 1303.905884307388 y[1]
   - 1303.905884307388 y[2] + omega >= 1245.0808459123
 R75: 2548.986730219688 y[0] - 1303.905884307388 y[1]
   - 1303.905884307388 y[2] + omega >= 1245.0808459123
 R76: 2548.986730219688 y[0] - 1303.905884307388 y[1]
   - 1303.905884307388 y[2] + omega >= 1245.0808459123
 R77: 2548.986730219688 y[0] - 1303.905884307388 y[1]
   - 1303.905884307388 y[2] + omega >= 1245.0808459123
 R78: 2548.986730219688 y[0] - 1303.905884307388 y[1]
   - 1303.905884307388 y[2] + omega >= 1245.0808459123
 R79: 2548.986730219688 y[0] - 1303.905884307388 y[1]
   - 1303.905884307388 y[2] + omega >= 1245.0808459123
 R80: 2548.986730219688 y[0] - 1303.905884307388 y[1]
   - 1303.905884307388 y[2] + omega >= 1245.0808459123
 R81: 2548.986730219688 y[0] - 1303.905884307388 y[1]
   - 1303.905884307388 y[2] + omega >= 1245.0808459123
 R82: 2548.986730219688 y[0] - 1303.905884307388 y[1]
   - 1303.905884307388 y[2] + omega >= 1245.0808459123
 R83: 2548.986730219688 y[0] - 1303.905884307388 y[1]
   - 1303.905884307388 y[2] + omega >= 1245.0808459123
 R84: 2548.986730219688 y[0] - 1303.905884307388 y[1]
   - 1303.905884307388 y[2] + omega >= 1245.0808459123
 R85: 2548.986730219688 y[0] - 1303.905884307388 y[1]
   - 1303.905884307388 y[2] + omega >= 1245.0808459123
 R86: 2548.986730219688 y[0] - 1303.905884307388 y[1]
   - 1303.905884307388 y[2] + omega >= 1245.0808459123
 R87: 2548.986730219688 y[0] - 1303.905884307388 y[1]
   - 1303.905884307388 y[2] + omega >= 1245.0808459123
 R88: 2548.986730219688 y[0] - 1303.905884307388 y[1]
   - 1303.905884307388 y[2] + omega >= 1245.0808459123
 R89: 2548.986730219688 y[0] - 1303.905884307388 y[1]
   - 1303.905884307388 y[2] + omega >= 1245.0808459123
 R90: 2548.986730219688 y[0] - 1303.905884307388 y[1]
   - 1303.905884307388 y[2] + omega >= 1245.0808459123
 R91: 2548.986730219688 y[0] - 1303.905884307388 y[1]
   - 1303.905884307388 y[2] + omega >= 1245.0808459123
 R92: 2548.986730219688 y[0] - 1303.905884307388 y[1]
   - 1303.905884307388 y[2] + omega >= 1245.0808459123
 R93: 2548.986730219688 y[0] - 1303.905884307388 y[1]
   - 1303.905884307388 y[2] + omega >= 1245.0808459123
 R94: 2548.986730219688 y[0] - 1303.905884307388 y[1]
   - 1303.905884307388 y[2] + omega >= 1245.0808459123
 R95: 2548.986730219688 y[0] - 1303.905884307388 y[1]
   - 1303.905884307388 y[2] + omega >= 1245.0808459123
 R96: 2548.986730219688 y[0] - 1303.905884307388 y[1]
   - 1303.905884307388 y[2] + omega >= 1245.0808459123
 R97: 2548.986730219688 y[0] - 1303.905884307388 y[1]
   - 1303.905884307388 y[2] + omega >= 1245.0808459123
 R98: 2548.986730219688 y[0] - 1303.905884307388 y[1]
   - 1303.905884307388 y[2] + omega >= 1245.0808459123
 R99: 2548.986730219688 y[0] - 1303.905884307388 y[1]
   - 1303.905884307388 y[2] + omega >= 1245.0808459123
 R100: 2548.986730219688 y[0] - 1303.905884307388 y[1]
   - 1303.905884307388 y[2] + omega >= 1245.0808459123
 R101: 2548.986730219688 y[0] - 1303.905884307388 y[1]
   - 1303.905884307388 y[2] + omega >= 1245.0808459123
 R102: 2548.986730219688 y[0] - 1303.905884307388 y[1]
   - 1303.905884307388 y[2] + omega >= 1245.0808459123
 R103: 2548.986730219688 y[0] - 1303.905884307388 y[1]
   - 1303.905884307388 y[2] + omega >= 1245.0808459123
 R104: 2548.986730219688 y[0] - 1303.905884307388 y[1]
   - 1303.905884307388 y[2] + omega >= 1245.0808459123
 R105: 2548.986730219688 y[0] - 1303.905884307388 y[1]
   - 1303.905884307388 y[2] + omega >= 1245.0808459123
 R106: 2548.986730219688 y[0] - 1303.905884307388 y[1]
   - 1303.905884307388 y[2] + omega >= 1245.0808459123
 R107: 2548.986730219688 y[0] - 1303.905884307388 y[1]
   - 1303.905884307388 y[2] + omega >= 1245.0808459123
 R108: 2548.986730219688 y[0] - 1303.905884307388 y[1]
   - 1303.905884307388 y[2] + omega >= 1245.0808459123
 R109: 2548.986730219688 y[0] - 1303.905884307388 y[1]
   - 1303.905884307388 y[2] + omega >= 1245.0808459123
 R110: 2548.986730219688 y[0] - 1303.905884307388 y[1]
   - 1303.905884307388 y[2] + omega >= 1245.0808459123
 R111: 2548.986730219688 y[0] - 1303.905884307388 y[1]
   - 1303.905884307388 y[2] + omega >= 1245.0808459123
 R112: 2548.986730219688 y[0] - 1303.905884307388 y[1]
   - 1303.905884307388 y[2] + omega >= 1245.0808459123
 R113: 2548.986730219688 y[0] - 1303.905884307388 y[1]
   - 1303.905884307388 y[2] + omega >= 1245.0808459123
 R114: 2548.986730219688 y[0] - 1303.905884307388 y[1]
   - 1303.905884307388 y[2] + omega >= 1245.0808459123
 R115: 2548.986730219688 y[0] - 1303.905884307388 y[1]
   - 1303.905884307388 y[2] + omega >= 1245.0808459123
 R116: 2548.986730219688 y[0] - 1303.905884307388 y[1]
   - 1303.905884307388 y[2] + omega >= 1245.0808459123
 R117: 2548.986730219688 y[0] - 1303.905884307388 y[1]
   - 1303.905884307388 y[2] + omega >= 1245.0808459123
 R118: 2548.986730219688 y[0] - 1303.905884307388 y[1]
   - 1303.905884307388 y[2] + omega >= 1245.0808459123
 R119: 2548.986730219688 y[0] - 1303.905884307388 y[1]
   - 1303.905884307388 y[2] + omega >= 1245.0808459123
 R120: 2548.986730219688 y[0] - 1303.905884307388 y[1]
   - 1303.905884307388 y[2] + omega >= 1245.0808459123
 R121: 2548.986730219688 y[0] - 1303.905884307388 y[1]
   - 1303.905884307388 y[2] + omega >= 1245.0808459123
 R122: 2548.986730219688 y[0] - 1303.905884307388 y[1]
   - 1303.905884307388 y[2] + omega >= 1245.0808459123
 R123: 2548.986730219688 y[0] - 1303.905884307388 y[1]
   - 1303.905884307388 y[2] + omega >= 1245.0808459123
 R124: 2548.986730219688 y[0] - 1303.905884307388 y[1]
   - 1303.905884307388 y[2] + omega >= 1245.0808459123
 R125: 2548.986730219688 y[0] - 1303.905884307388 y[1]
   - 1303.905884307388 y[2] + omega >= 1245.0808459123
 R126: 2548.986730219688 y[0] - 1303.905884307388 y[1]
   - 1303.905884307388 y[2] + omega >= 1245.0808459123
 R127: 2548.986730219688 y[0] - 1303.905884307388 y[1]
   - 1303.905884307388 y[2] + omega >= 1245.0808459123
 R128: 2548.986730219688 y[0] - 1303.905884307388 y[1]
   - 1303.905884307388 y[2] + omega >= 1245.0808459123
 R129: 2548.986730219688 y[0] - 1303.905884307388 y[1]
   - 1303.905884307388 y[2] + omega >= 1245.0808459123
 R130: 2548.986730219688 y[0] - 1303.905884307388 y[1]
   - 1303.905884307388 y[2] + omega >= 1245.0808459123
Bounds
Binaries
 x[0,0] x[0,1] x[0,2] x[1,0] x[1,1] x[1,2] x[2,0] x[2,1] x[2,2] y[0] y[1]
 y[2]
End
